
******************************************************************************
This program contains Ipopt, a library for large-scale nonlinear optimization.
 Ipopt is released as open source code under the Eclipse Public License (EPL).
         For more information visit http://projects.coin-or.org/Ipopt

This version of Ipopt was compiled from source code available at
    https://github.com/IDAES/Ipopt as part of the Institute for the Design of
    Advanced Energy Systems Process Systems Engineering Framework (IDAES PSE
    Framework) Copyright (c) 2018-2019. See https://github.com/IDAES/idaes-pse.

This version of Ipopt was compiled using HSL, a collection of Fortran codes
    for large-scale scientific computation.  All technical papers, sales and
    publicity material resulting from use of the HSL codes within IPOPT must
    contain the following acknowledgement:
        HSL, a collection of Fortran codes for large-scale scientific
        computation. See http://www.hsl.rl.ac.uk.
******************************************************************************

This is Ipopt version 3.13.2, running with linear solver ma27.

Number of nonzeros in equality constraint Jacobian...:     1210
Number of nonzeros in inequality constraint Jacobian.:        0
Number of nonzeros in Lagrangian Hessian.............:     1376

Total number of variables............................:      480
                     variables with only lower bounds:      128
                variables with lower and upper bounds:      288
                     variables with only upper bounds:        0
Total number of equality constraints.................:      477
Total number of inequality constraints...............:        0
        inequality constraints with only lower bounds:        0
   inequality constraints with lower and upper bounds:        0
        inequality constraints with only upper bounds:        0

iter    objective    inf_pr   inf_du lg(mu)  ||d||  lg(rg) alpha_du alpha_pr  ls
   0  0.0000000e+00 2.28e-01 2.84e-14  -1.0 0.00e+00    -  0.00e+00 0.00e+00   0
   1  1.2107146e+01 1.04e-01 1.93e+06  -1.0 3.23e+05    -  1.36e-01 9.90e-01h  1
   2  2.7010774e+01 5.40e-02 1.24e+06  -1.0 8.22e+05    -  5.66e-01 4.95e-01h  2
   3  2.7712884e+01 5.44e-02 1.24e+06  -1.0 1.30e+07    -  4.52e-02 1.85e-03h  8
   4  2.7913497e+01 5.28e-02 9.14e+07  -1.0 4.42e+06  -4.0 1.89e-01 3.07e-02h  4
   5  3.0354739e+01 5.11e-02 2.35e+08  -1.0 3.64e+06  -3.6 3.03e-01 3.26e-02h  4
   6  3.7556806e+01 6.24e-02 1.20e+09  -1.0 3.06e+06  -3.1 4.00e-01 6.81e-02h  3
   7  4.7168891e+01 8.02e-02 1.66e+09  -1.0 1.58e+06  -2.7 4.79e-01 9.90e-02h  3
   8  4.9350200e+01 7.92e-02 1.59e+09  -1.0 1.02e+06  -3.2 7.29e-01 2.88e-02h  5
   9  4.9527782e+01 7.88e-02 1.58e+09  -1.0 1.71e+06  -3.7 6.99e-01 8.08e-03h  6
iter    objective    inf_pr   inf_du lg(mu)  ||d||  lg(rg) alpha_du alpha_pr  ls
  10  4.9868667e+01 7.85e-02 1.56e+09  -1.0 1.12e+06  -3.3 9.76e-01 5.98e-03h  7
  11  4.9919277e+01 7.84e-02 1.56e+09  -1.0 1.24e+06  -1.9 9.90e-01 1.33e-03h  9
  12  7.0705260e+01 2.81e+01 4.99e+11  -1.0 8.43e+05  -0.6 9.90e-01 3.86e-01w  1
  13  6.3703452e+01 2.81e+01 4.05e+11  -1.0 1.44e+06  -1.1 1.63e-01 2.21e-01w  1
  14  4.5060463e+01 2.92e+00 3.63e+11  -1.0 2.35e+05  -0.6 1.94e-01 9.90e-01w  1
  15  4.9933039e+01 7.83e-02 1.56e+09  -1.0 2.16e+05  -0.2 9.90e-01 3.77e-04h 10
  16  4.9915561e+01 7.83e-02 1.56e+09  -1.0 1.44e+06  -0.7 9.97e-01 4.35e-04f 10
  17  4.9915600e+01 7.83e-02 1.56e+09  -1.0 8.60e+05  -1.2 1.00e+00 2.04e-05h 15
  18  4.9699970e+01 7.82e-02 1.56e+09  -1.0 5.10e+06  -1.6 9.59e-01 8.37e-04f  8
  19  5.0741040e+01 7.68e-02 1.53e+09  -1.0 6.93e+05  -2.1 8.69e-01 1.87e-02h  6
iter    objective    inf_pr   inf_du lg(mu)  ||d||  lg(rg) alpha_du alpha_pr  ls
  20  5.1367838e+01 7.60e-02 1.51e+09  -1.0 7.75e+05  -2.6 9.74e-01 1.04e-02h  7
  21  5.1273953e+01 7.59e-02 1.51e+09  -1.0 1.00e+07  -1.3 4.45e-01 1.68e-04f 10
  22  5.1212102e+01 7.57e-02 1.50e+09  -1.0 5.42e+05  -0.8 1.00e+00 3.20e-03f  9
  23  6.1532853e+01 5.59e-02 2.23e+10  -1.0 2.36e+05  -1.3 9.97e-01 4.95e-01h  2
  24  6.3721028e+01 5.25e-02 1.61e+10  -1.0 2.49e+05  -1.8 9.37e-01 2.47e-01h  3
  25  7.1169957e+01 2.34e+01 1.11e+11  -1.0 1.94e+05  -0.5 9.60e-01 9.90e-01w  1
  26  6.0477197e+01 4.35e-01 1.06e+11  -1.0 1.10e+05  -1.0 8.62e-01 9.90e-01w  1
  27  5.5922416e+01 9.79e-02 9.33e+09  -1.0 9.33e+04  -1.4 9.50e-01 9.90e-01h  1
  28  5.3825893e+01 6.58e-03 1.30e+09  -1.0 3.08e+04  -1.9 1.00e+00 9.90e-01h  1
  29  5.3761596e+01 9.15e-05 7.19e+09  -1.0 2.24e+03  -2.4 1.00e+00 9.90e-01h  1
In iteration 29, 32 Slacks too small, adjusting variable bounds
iter    objective    inf_pr   inf_du lg(mu)  ||d||  lg(rg) alpha_du alpha_pr  ls
  30  5.3761125e+01 9.20e-07 7.18e+11  -1.0 3.02e+01  -2.9 1.00e+00 9.90e-01h  1
  31  5.3761108e+01 1.60e-12 7.31e-02  -1.0 3.12e-01  -3.3 1.00e+00 1.00e+00h  1
  32  5.3668789e+01 1.00e-07 4.81e+11  -9.0 1.20e+06    -  6.58e-01 9.77e-04f 11
  33  5.3576614e+01 2.00e-07 6.78e+11  -9.0 1.20e+06    -  7.87e-01 9.77e-04f 11
  34  5.3484631e+01 2.98e-07 7.23e+11  -9.0 1.20e+06    -  8.65e-01 9.77e-04f 11
  35  5.3438729e+01 3.22e-07 7.29e+11  -9.0 1.20e+06    -  8.78e-01 4.88e-04f 12
  36  5.3392876e+01 3.46e-07 7.29e+11  -9.0 1.20e+06    -  8.87e-01 4.88e-04f 12
  37  7.1117740e+00 2.15e-01 8.66e+06  -9.0 1.20e+06    -  9.13e-01 1.00e+00f  1
  38  8.0132286e+00 2.94e-02 6.45e+07  -9.0 1.70e+05  -3.8 9.27e-01 1.00e+00h  1
  39  7.3376802e+00 1.04e-02 1.95e+07  -9.0 1.10e+05  -4.3 8.75e-01 1.00e+00f  1
iter    objective    inf_pr   inf_du lg(mu)  ||d||  lg(rg) alpha_du alpha_pr  ls
  40  6.9570417e+00 6.36e-04 2.29e+06  -9.0 2.64e+04  -4.8 1.00e+00 1.00e+00f  1
  41  6.9486096e+00 5.75e-07 9.04e+02  -9.0 6.31e+02  -5.2 1.00e+00 1.00e+00h  1
  42  6.9484275e+00 2.21e-11 7.82e-02  -9.0 6.31e+00  -5.7 1.00e+00 1.00e+00h  1
  43  4.7082198e+00 5.48e-02 7.60e+00  -9.0 3.06e+05    -  1.00e+00 1.00e+00f  1
  44  3.5303791e+00 3.56e+00 7.86e+01  -9.0 1.02e+06    -  6.57e-01 2.50e-01f  3
  45  2.7133236e+00 1.09e-02 2.97e+01  -9.0 1.27e+05    -  1.00e+00 1.00e+00f  1
  46  1.3977035e+00 1.61e-02 2.66e+00  -9.0 9.15e+04    -  1.00e+00 1.00e+00f  1
  47  1.5784831e+00 4.70e-04 8.10e-01  -9.0 2.31e+04    -  1.00e+00 1.00e+00h  1
  48  1.5710498e+00 2.82e-05 4.03e-03  -9.0 2.96e+03    -  1.00e+00 1.00e+00h  1
  49  1.5714495e+00 1.43e-08 3.09e-06  -9.0 6.27e+01    -  1.00e+00 1.00e+00h  1
iter    objective    inf_pr   inf_du lg(mu)  ||d||  lg(rg) alpha_du alpha_pr  ls
  50  1.5714496e+00 3.06e-09 9.09e-13  -9.0 1.38e-02    -  1.00e+00 1.00e+00h  1

Number of Iterations....: 50

                                   (scaled)                 (unscaled)
Objective...............:   1.5714495630934366e+00    1.5714495630934366e+00
Dual infeasibility......:   9.0949470177292824e-13    9.0949470177292824e-13
Constraint violation....:   3.0581901455661864e-09    3.0581901455661864e-09
Complementarity.........:   9.0909090909090931e-10    9.0909090909090931e-10
Overall NLP error.......:   3.0581901455661864e-09    3.0581901455661864e-09


Number of objective function evaluations             = 265
Number of objective gradient evaluations             = 51
Number of equality constraint evaluations            = 265
Number of inequality constraint evaluations          = 0
Number of equality constraint Jacobian evaluations   = 51
Number of inequality constraint Jacobian evaluations = 0
Number of Lagrangian Hessian evaluations             = 50
Total CPU secs in IPOPT (w/o function evaluations)   =      0.085
Total CPU secs in NLP function evaluations           =      1.827

EXIT: Optimal Solution Found.
